# Solution for model GasLib-40
# Objective value = 1.0753273276097646e+02
loadshed[innode_1] 0
loadshed[innode_2] 0
loadshed[innode_3] 0
loadshed[innode_4] 0
loadshed[innode_5] 0
loadshed[innode_6] 0
loadshed[innode_7] 0
loadshed[innode_8] 0
loadshed[source_1] 1.0275047706720442e-01
loadshed[source_2] 2.4447348127071689e-01
loadshed[source_3] 3.3297430731461897e-01
loadshed[sink_1] 1
loadshed[sink_2] 0
loadshed[sink_3] 0
loadshed[sink_4] 0
loadshed[sink_5] 0
loadshed[sink_6] 0
loadshed[sink_7] 0
loadshed[sink_8] 0
loadshed[sink_9] 1
loadshed[sink_10] 0
loadshed[sink_11] 0
loadshed[sink_12] 1
loadshed[sink_13] 0
loadshed[sink_14] 0
loadshed[sink_15] 0
loadshed[sink_16] 0
loadshed[sink_17] 0
loadshed[sink_18] 2.5148000114801372e-01
loadshed[sink_19] 0
loadshed[sink_20] 0
loadshed[sink_21] 1
loadshed[sink_22] 0.369748935206962
loadshed[sink_23] 0
loadshed[sink_24] 9.5402096495313882e-01
loadshed[sink_25] 0
loadshed[sink_26] 1
loadshed[sink_27] 0
loadshed[sink_28] 0
loadshed[sink_29] 0
flow[source_1,sink_3] 1.4184642631642424e+02
flow[innode_1,sink_16] 1.6354166666666970e+01
flow[innode_6,sink_13] 9.0288896251191382e+00
flow[sink_13,sink_14] -7.32527704154753
flow[sink_14,sink_10] -2.3679443708214198e+01
flow[sink_25,sink_26] 0
flow[sink_26,sink_9] 0
flow[sink_9,sink_18] 0
flow[sink_26,sink_4] 0
flow[sink_4,sink_20] -1.2142560057235715e+02
flow[sink_18,sink_6] -1.2241420814557106e+01
flow[sink_25,innode_8] -1.0913809298308786e+02
flow[sink_6,sink_7] -3.8902818436693281e+01
flow[sink_6,sink_22] 1.0307230955469477e+01
flow[sink_7,sink_24] 7.5194880232887717e-01
flow[sink_22,sink_1] 0
flow[sink_24,sink_21] 0
flow[sink_21,sink_12] 0
flow[sink_7,sink_5] -56.0089339056888
flow[sink_5,sink_17] -7.2363100572355464e+01
flow[sink_17,sink_4] -1.0507143390569036e+02
flow[sink_17,sink_8] 1.6354166666668334e+01
flow[sink_3,sink_23] 16.3541666666697
flow[sink_8,sink_20] 0
flow[sink_25,sink_20] 1.3777976723902381e+02
flow[sink_25,sink_15] -54.0247305477219
flow[sink_15,sink_29] -4.1919164035907016e+01
flow[sink_29,sink_28] 1.6354166666667879e+01
flow[sink_29,sink_2] 4.4813899845148221e+01
flow[sink_2,sink_15] 2.8459733178481553e+01
flow[sink_29,innode_7] -1.1944139721438978e+02
flow[innode_4,sink_19] 4.0306418773529565e+01
flow[sink_19,innode_3] 3.5497761486031230e+01
flow[innode_4,innode_5] 6.5143858268016956e+01
flow[sink_27,innode_5] -6.5143858268016956e+01
flow[sink_27,sink_19] 4.8789691601350292e+01
flow[sink_10,sink_11] 3.2708333333333641e+01
flow[sink_10,innode_2] -3.7244182222183191e+01
flow[sink_10,innode_3] -3.5497761486031230e+01
flow[innode_6,sink_25] -9.0288896251191382e+00
flow[sink_11,innode_1] 1.6354166666666970e+01
flow[sink_19,innode_2] 3.7244182222183191e+01
flow[source_3,innode_4] 1.0545027704154651e+02
flow[source_2,innode_7] 1.1944139721438978e+02
flow[sink_3,innode_8] 1.0913809298308786e+02
pressure[innode_1] 7.7260124112587519e+01
pressure[innode_2] 7.9380334274143934e+01
pressure[innode_3] 7.9301728501018545e+01
pressure[innode_4] 81.01325
pressure[innode_5] 8.0968440619236972e+01
pressure[innode_6] 7.6328486534582865e+01
pressure[innode_7] 81.01325
pressure[innode_8] 8.0539111584123120e+01
pressure[source_1] 81.01325
pressure[source_2] 81.01325
pressure[source_3] 81.01325
pressure[sink_1] 1.0132500000000002e+00
pressure[sink_2] 7.6683473877019935e+01
pressure[sink_3] 8.0539111584123120e+01
pressure[sink_4] 3.4573864649623516e+01
pressure[sink_5] 2.5167852970965480e+01
pressure[sink_6] 1.3401323832481131e+00
pressure[sink_7] 1.8741753500996086e+00
pressure[sink_8] 2.9941295712678084e+01
pressure[sink_9] 1.0132499999999152e+00
pressure[sink_10] 7.7411825420191064e+01
pressure[sink_11] 7.7260124112587519e+01
pressure[sink_12] 1.01325
pressure[sink_13] 7.6278711774947212e+01
pressure[sink_14] 7.6291820982188682e+01
pressure[sink_15] 7.6590559120616362e+01
pressure[sink_16] 7.6238474277769839e+01
pressure[sink_17] 3.0558380908091710e+01
pressure[sink_18] 1.0132499999998636e+00
pressure[sink_19] 7.9380334274143934e+01
pressure[sink_20] 4.3482211305840032e+01
pressure[sink_21] 1.01325
pressure[sink_22] 1.0132500000000002e+00
pressure[sink_23] 8.0374393572463333e+01
pressure[sink_24] 1.01325
pressure[sink_25] 7.6328486534582865e+01
pressure[sink_26] 1.0132500000000002e+00
pressure[sink_27] 8.0427866968519524e+01
pressure[sink_28] 77.5233782620339
pressure[sink_29] 7.7818660535651077e+01
interdiction[source_1,sink_3] 0
interdiction[innode_1,sink_16] 0
interdiction[innode_6,sink_13] 0
interdiction[sink_13,sink_14] 0
interdiction[sink_14,sink_10] 0
interdiction[sink_25,sink_26] 1
interdiction[sink_26,sink_9] 0
interdiction[sink_9,sink_18] 0
interdiction[sink_26,sink_4] 1
interdiction[sink_4,sink_20] 0
interdiction[sink_18,sink_6] 0
interdiction[sink_25,innode_8] 0
interdiction[sink_6,sink_7] 0
interdiction[sink_6,sink_22] 0
interdiction[sink_7,sink_24] 0
interdiction[sink_22,sink_1] 0
interdiction[sink_24,sink_21] 0
interdiction[sink_21,sink_12] 0
interdiction[sink_7,sink_5] 0
interdiction[sink_5,sink_17] 0
interdiction[sink_17,sink_4] 0
interdiction[sink_17,sink_8] 0
interdiction[sink_3,sink_23] 0
interdiction[sink_8,sink_20] 1
interdiction[sink_25,sink_20] 0
interdiction[sink_25,sink_15] 0
interdiction[sink_15,sink_29] 0
interdiction[sink_29,sink_28] 0
interdiction[sink_29,sink_2] 0
interdiction[sink_2,sink_15] 0
interdiction[sink_29,innode_7] 0
interdiction[innode_4,sink_19] 0
interdiction[sink_19,innode_3] 0
interdiction[innode_4,innode_5] 0
interdiction[sink_27,innode_5] 0
interdiction[sink_27,sink_19] 0
interdiction[sink_10,sink_11] 0
interdiction[sink_10,innode_2] 0
interdiction[sink_10,innode_3] 0
interdiction[innode_6,sink_25] 0
interdiction[sink_11,innode_1] 0
interdiction[sink_19,innode_2] 0
interdiction[source_3,innode_4] 0
interdiction[source_2,innode_7] 0
interdiction[sink_3,innode_8] 0
WCcheckFlow[source_1,sink_3] 39
WCcheckFlow[innode_1,sink_16] 1
WCcheckFlow[innode_6,sink_13] 13
WCcheckFlow[sink_13,sink_14] 12
WCcheckFlow[sink_14,sink_10] 11
WCcheckFlow[sink_25,sink_26] 0
WCcheckFlow[sink_26,sink_9] -1
WCcheckFlow[sink_9,sink_18] -2
WCcheckFlow[sink_26,sink_4] 0
WCcheckFlow[sink_4,sink_20] -14
WCcheckFlow[sink_18,sink_6] -3
WCcheckFlow[sink_25,innode_8] -36
WCcheckFlow[sink_6,sink_7] -6
WCcheckFlow[sink_6,sink_22] 2
WCcheckFlow[sink_7,sink_24] 3
WCcheckFlow[sink_22,sink_1] 1
WCcheckFlow[sink_24,sink_21] 2
WCcheckFlow[sink_21,sink_12] 1
WCcheckFlow[sink_7,sink_5] -10
WCcheckFlow[sink_5,sink_17] -11
WCcheckFlow[sink_17,sink_4] -13
WCcheckFlow[sink_17,sink_8] 1
WCcheckFlow[sink_3,sink_23] 1
WCcheckFlow[sink_8,sink_20] 0
WCcheckFlow[sink_25,sink_20] 15
WCcheckFlow[sink_25,sink_15] 6
WCcheckFlow[sink_15,sink_29] 5
WCcheckFlow[sink_29,sink_28] 1
WCcheckFlow[sink_29,sink_2] 1
WCcheckFlow[sink_2,sink_15] 0
WCcheckFlow[sink_29,innode_7] 2
WCcheckFlow[innode_4,sink_19] -4
WCcheckFlow[sink_19,innode_3] -5
WCcheckFlow[innode_4,innode_5] 2
WCcheckFlow[sink_27,innode_5] -1
WCcheckFlow[sink_27,sink_19] 0
WCcheckFlow[sink_10,sink_11] 3
WCcheckFlow[sink_10,innode_2] 1
WCcheckFlow[sink_10,innode_3] 6
WCcheckFlow[innode_6,sink_25] -14
WCcheckFlow[sink_11,innode_1] 2
WCcheckFlow[sink_19,innode_2] 0
WCcheckFlow[source_3,innode_4] -1
WCcheckFlow[source_2,innode_7] -1
WCcheckFlow[sink_3,innode_8] 37
